Problem:    Pro205
Rows:       7
Columns:    7 (7 integer, 7 binary)
Non-zeros:  25
Status:     INTEGER OPTIMAL
Objective:  z = 2 (MINimum)

   No.   Row name        Activity     Lower bound   Upper bound
------ ------------    ------------- ------------- -------------
     1 z                           2                             
     2 r[D1]                       2             1               
     3 r[D2]                       1             1               
     4 r[D3]                       1             1               
     5 r[D4]                       1             1               
     6 r[D5]                       1             1               
     7 r[D6]                       1             1               

   No. Column name       Activity     Lower bound   Upper bound
------ ------------    ------------- ------------- -------------
     1 x[C1]        *              0             0             1 
     2 x[C2]        *              0             0             1 
     3 x[C3]        *              1             0             1 
     4 x[C4]        *              0             0             1 
     5 x[C5]        *              1             0             1 
     6 x[C6]        *              0             0             1 
     7 x[C7]        *              0             0             1 

Integer feasibility conditions:

KKT.PE: max.abs.err = 0.00e+00 on row 0
        max.rel.err = 0.00e+00 on row 0
        High quality

KKT.PB: max.abs.err = 0.00e+00 on row 0
        max.rel.err = 0.00e+00 on row 0
        High quality

End of output
